NAME : A071-03f.2054.tour
COMMENT : Cost = 0_2054
COMMENT : Found by LKH [Keld Helsgaun] Tue Sep 12 09:35:35 2017
TYPE : TOUR
DIMENSION : 73
TOUR_SECTION
1
29
25
30
31
32
66
2
3
73
60
9
8
14
67
15
13
16
17
19
20
21
22
23
24
61
34
33
27
18
65
26
28
7
10
12
11
59
62
71
58
57
53
54
45
46
44
43
36
35
70
42
39
37
38
64
41
69
47
63
55
52
51
68
50
48
40
49
56
72
4
5
6
-1
EOF
